\ Model Ore Mixing Problem
\ LP format - for model browsing. Use MPS format to capture full model detail.
Minimize
  499.5004995004996 a_max_00 + 983.2841691248769 a_max_01
   + 990099.0099009901 a_max_10 + 2.7777777777777771e+06 a_max_11
   + 204081.6326530612 a_max_20 + 227272.7272727273 a_max_21
   + 200000 a_max_30 + 1.1111111111111108e+06 a_max_31
   + 833333.3333333334 a_max_40 + 158730.1587301587 a_max_41
   + 93457.94392523366 a_max_50 + 161290.3225806451 a_max_51
   + 400.3202562049639 a_min_00 + 287.1088142405972 a_min_01
   + 2.0408163265306123e+06 a_min_10 + 877192.9824561403 a_min_11
   + 1e+07 a_min_20 + 1.6666666666666667e+06 a_min_21 + 1e+11 a_min_30
   + 243902.4390243902 a_min_31 + 113636.3636363636 a_min_40
   + 270270.2702702702 a_min_41 + 232558.1395348836 a_min_50
   + 113636.3636363637 a_min_51 + 0.04995004995005 b_min_00
   + 0.0983284169124877 b_min_01 + 2.040816326530612 b_min_10
   + 2.777777777777777 b_min_11 + 100 b_min_20 + 16.66666666666667 b_min_21
   + 1e+06 b_min_30 + 11.11111111111111 b_min_31
   + 8.333333333333334 b_min_40 + 2.702702702702703 b_min_41
   + 2.325581395348836 b_min_50 + 1.612903225806451 b_min_51
   + 0.04995004995005 b_max_00 + 0.0983284169124877 b_max_01
   + 2.040816326530612 b_max_10 + 2.777777777777777 b_max_11 + 100 b_max_20
   + 16.66666666666667 b_max_21 + 1e+06 b_max_30
   + 11.11111111111111 b_max_31 + 8.333333333333334 b_max_40
   + 2.702702702702703 b_max_41 + 2.325581395348836 b_max_50
   + 1.612903225806451 b_max_51
Subject To
 input_weight_constr_0: y_00 + y_01 + y_02 + y_03 + y_04 + y_05 <= 35.5
 capacity_constr_0: y_00 <= 144.1
 weight_constr_00: x_00 + x_01 - y_00 <= 791.2
 capacity_constr_1: y_01 <= 86.9
 weight_constr_10: x_10 + x_11 - y_01 <= 577.6
 capacity_constr_2: y_02 <= 106.6
 weight_constr_20: x_20 + x_21 - y_02 <= 763.7
 capacity_constr_3: y_03 <= 112.7
 weight_constr_30: x_30 + x_31 - y_03 <= 535.5
 capacity_constr_4: y_04 <= 25.4
 weight_constr_40: x_40 + x_41 - y_04 <= 772.5
 capacity_constr_5: y_05 <= 46.7
 weight_constr_50: x_50 + x_51 - y_05 <= 663.4
 demand_constr_0: x_00 + x_10 + x_20 + x_30 + x_40 + x_50 = 1250.1
 min_quality_constr_00: - 4.07 x_00 + 18.84 x_10 + 19.55 x_20 + 36.02 x_30
   + 21.34 x_40 + 43.46 x_50 + 1250.1 a_min_00 >= -0
 max_quality_constr_00: - 49.07 x_00 - 26.16 x_10 - 25.45 x_20 - 8.98 x_30
   - 23.66 x_40 - 1.54 x_50 - 1250.1 a_max_00 <= -0
 goal_quality_constr_00: - 29.05 x_00 - 6.14 x_10 - 5.43 x_20 + 11.04 x_30
   - 3.64 x_40 + 18.48 x_50 + 1250.1 b_min_00 - 1250.1 b_max_00 = -0
 min_quality_constr_10: 1.63 x_00 + 1.51 x_10 + 1.73 x_20 + 1.17 x_30
   + 0.22 x_40 + 1.45 x_50 + 1250.1 a_min_10 >= -0
 max_quality_constr_10: 0.13 x_00 + 0.01 x_10 + 0.23 x_20 - 0.33 x_30
   - 1.28 x_40 - 0.05 x_50 - 1250.1 a_max_10 <= -0
 goal_quality_constr_10: 1.14 x_00 + 1.02 x_10 + 1.24 x_20 + 0.68 x_30
   - 0.27 x_40 + 0.96 x_50 + 1250.1 b_min_10 - 1250.1 b_max_10 = -0
 min_quality_constr_20: 2.95 x_00 + 4.48 x_10 + 2.87 x_20 + 5.6 x_30
   + 1.89 x_40 + 4.31 x_50 + 1250.1 a_min_20 >= -0
 max_quality_constr_20: 2.45 x_00 + 3.98 x_10 + 2.37 x_20 + 5.1 x_30
   + 1.39 x_40 + 3.81 x_50 - 1250.1 a_max_20 <= -0
 goal_quality_constr_20: 2.94 x_00 + 4.47 x_10 + 2.86 x_20 + 5.59 x_30
   + 1.88 x_40 + 4.3 x_50 + 1250.1 b_min_20 - 1250.1 b_max_20 = -0
 min_quality_constr_30: 0.76 x_00 + 1.28 x_10 + 5.82 x_20 + 4.21 x_30
   + 3.39 x_40 + 0.96 x_50 + 1250.1 a_min_30 >= -0
 max_quality_constr_30: 0.26 x_00 + 0.78 x_10 + 5.32 x_20 + 3.71 x_30
   + 2.89 x_40 + 0.46 x_50 - 1250.1 a_max_30 <= -0
 goal_quality_constr_30: 0.76 x_00 + 1.28 x_10 + 5.82 x_20 + 4.21 x_30
   + 3.39 x_40 + 0.96 x_50 + 1250.1 b_min_30 - 1250.1 b_max_30 = -0
 min_quality_constr_40: 0.01 x_00 + 1.17 x_10 + 0.41 x_20 + 0.24 x_30
   + 0.09 x_40 + 1.1 x_50 + 1250.1 a_min_40 >= -0
 max_quality_constr_40: - 0.99 x_00 + 0.17 x_10 - 0.59 x_20 - 0.76 x_30
   - 0.91 x_40 + 0.1 x_50 - 1250.1 a_max_40 <= -0
 goal_quality_constr_40: - 0.87 x_00 + 0.29 x_10 - 0.47 x_20 - 0.64 x_30
   - 0.79 x_40 + 0.22 x_50 + 1250.1 b_min_40 - 1250.1 b_max_40 = -0
 min_quality_constr_50: 0.54 x_00 - 0.04 x_10 - 0.12 x_20 + 1.51 x_30
   - 0.03 x_40 + 2.09 x_50 + 1250.1 a_min_50 >= -0
 max_quality_constr_50: - 0.96 x_00 - 1.54 x_10 - 1.62 x_20 + 0.01 x_30
   - 1.53 x_40 + 0.59 x_50 - 1250.1 a_max_50 <= -0
 goal_quality_constr_50: 0.11 x_00 - 0.47 x_10 - 0.55 x_20 + 1.08 x_30
   - 0.46 x_40 + 1.66 x_50 + 1250.1 b_min_50 - 1250.1 b_max_50 = -0
 demand_constr_1: x_01 + x_11 + x_21 + x_31 + x_41 + x_51 = 1329.2
 min_quality_constr_01: - 4.07 x_01 + 18.84 x_11 + 19.55 x_21 + 36.02 x_31
   + 21.34 x_41 + 43.46 x_51 + 1329.2 a_min_01 >= -0
 max_quality_constr_01: - 49.07 x_01 - 26.16 x_11 - 25.45 x_21 - 8.98 x_31
   - 23.66 x_41 - 1.54 x_51 - 1329.2 a_max_01 <= -0
 goal_quality_constr_01: - 38.9 x_01 - 15.99 x_11 - 15.28 x_21 + 1.19 x_31
   - 13.49 x_41 + 8.63 x_51 + 1329.2 b_min_01 - 1329.2 b_max_01 = -0
 min_quality_constr_11: 1.63 x_01 + 1.51 x_11 + 1.73 x_21 + 1.17 x_31
   + 0.22 x_41 + 1.45 x_51 + 1329.2 a_min_11 >= -0
 max_quality_constr_11: 0.13 x_01 + 0.01 x_11 + 0.23 x_21 - 0.33 x_31
   - 1.28 x_41 - 0.05 x_51 - 1329.2 a_max_11 <= -0
 goal_quality_constr_11: 0.49 x_01 + 0.37 x_11 + 0.59 x_21 + 0.03 x_31
   - 0.92 x_41 + 0.31 x_51 + 1329.2 b_min_11 - 1329.2 b_max_11 = -0
 min_quality_constr_21: 2.95 x_01 + 4.48 x_11 + 2.87 x_21 + 5.6 x_31
   + 1.89 x_41 + 4.31 x_51 + 1329.2 a_min_21 >= -0
 max_quality_constr_21: 2.45 x_01 + 3.98 x_11 + 2.37 x_21 + 5.1 x_31
   + 1.39 x_41 + 3.81 x_51 - 1329.2 a_max_21 <= -0
 goal_quality_constr_21: 2.89 x_01 + 4.42 x_11 + 2.81 x_21 + 5.54 x_31
   + 1.83 x_41 + 4.25 x_51 + 1329.2 b_min_21 - 1329.2 b_max_21 = -0
 min_quality_constr_31: 0.76 x_01 + 1.28 x_11 + 5.82 x_21 + 4.21 x_31
   + 3.39 x_41 + 0.96 x_51 + 1329.2 a_min_31 >= -0
 max_quality_constr_31: 0.26 x_01 + 0.78 x_11 + 5.32 x_21 + 3.71 x_31
   + 2.89 x_41 + 0.46 x_51 - 1329.2 a_max_31 <= -0
 goal_quality_constr_31: 0.35 x_01 + 0.87 x_11 + 5.41 x_21 + 3.8 x_31
   + 2.98 x_41 + 0.55 x_51 + 1329.2 b_min_31 - 1329.2 b_max_31 = -0
 min_quality_constr_41: 0.01 x_01 + 1.17 x_11 + 0.41 x_21 + 0.24 x_31
   + 0.09 x_41 + 1.1 x_51 + 1329.2 a_min_41 >= -0
 max_quality_constr_41: - 0.99 x_01 + 0.17 x_11 - 0.59 x_21 - 0.76 x_31
   - 0.91 x_41 + 0.1 x_51 - 1329.2 a_max_41 <= -0
 goal_quality_constr_41: - 0.36 x_01 + 0.8 x_11 + 0.04 x_21 - 0.13 x_31
   - 0.28 x_41 + 0.73 x_51 + 1329.2 b_min_41 - 1329.2 b_max_41 = -0
 min_quality_constr_51: 0.54 x_01 - 0.04 x_11 - 0.12 x_21 + 1.51 x_31
   - 0.03 x_41 + 2.09 x_51 + 1329.2 a_min_51 >= -0
 max_quality_constr_51: - 0.96 x_01 - 1.54 x_11 - 1.62 x_21 + 0.01 x_31
   - 1.53 x_41 + 0.59 x_51 - 1329.2 a_max_51 <= -0
 goal_quality_constr_51: - 0.34 x_01 - 0.92 x_11 - x_21 + 0.63 x_31
   - 0.91 x_41 + 1.21 x_51 + 1329.2 b_min_51 - 1329.2 b_max_51 = -0
Bounds
End
